; benchmark generated from python API
(set-info :status unknown)
(declare-fun makespan () Int)
(declare-fun y_0 () Int)
(declare-fun x_0 () Int)
(declare-fun y_1 () Int)
(declare-fun x_1 () Int)
(declare-fun lr_2_1 () Bool)
(declare-fun y_2 () Int)
(declare-fun x_2 () Int)
(declare-fun ud_3_1 () Bool)
(declare-fun y_3 () Int)
(declare-fun x_3 () Int)
(declare-fun ud_4_1 () Bool)
(declare-fun y_4 () Int)
(declare-fun x_4 () Int)
(declare-fun ud_5_1 () Bool)
(declare-fun y_5 () Int)
(declare-fun x_5 () Int)
(declare-fun ud_6_1 () Bool)
(declare-fun y_6 () Int)
(declare-fun x_6 () Int)
(declare-fun y_7 () Int)
(declare-fun x_7 () Int)
(declare-fun y_8 () Int)
(declare-fun x_8 () Int)
(declare-fun lr_1_2 () Bool)
(declare-fun ud_1_2 () Bool)
(declare-fun ud_2_1 () Bool)
(declare-fun lr_1_3 () Bool)
(declare-fun ud_1_3 () Bool)
(declare-fun lr_3_1 () Bool)
(declare-fun lr_1_4 () Bool)
(declare-fun ud_1_4 () Bool)
(declare-fun lr_4_1 () Bool)
(declare-fun lr_1_5 () Bool)
(declare-fun ud_1_5 () Bool)
(declare-fun lr_5_1 () Bool)
(declare-fun lr_1_6 () Bool)
(declare-fun ud_1_6 () Bool)
(declare-fun lr_6_1 () Bool)
(declare-fun lr_1_7 () Bool)
(declare-fun ud_1_7 () Bool)
(declare-fun lr_7_1 () Bool)
(declare-fun ud_7_1 () Bool)
(declare-fun lr_1_8 () Bool)
(declare-fun ud_1_8 () Bool)
(declare-fun lr_8_1 () Bool)
(declare-fun ud_8_1 () Bool)
(declare-fun lr_1_9 () Bool)
(declare-fun ud_1_9 () Bool)
(declare-fun lr_9_1 () Bool)
(declare-fun ud_9_1 () Bool)
(declare-fun lr_2_3 () Bool)
(declare-fun ud_2_3 () Bool)
(declare-fun lr_3_2 () Bool)
(declare-fun ud_3_2 () Bool)
(declare-fun lr_2_4 () Bool)
(declare-fun ud_2_4 () Bool)
(declare-fun lr_4_2 () Bool)
(declare-fun ud_4_2 () Bool)
(declare-fun lr_2_5 () Bool)
(declare-fun ud_2_5 () Bool)
(declare-fun lr_5_2 () Bool)
(declare-fun ud_5_2 () Bool)
(declare-fun lr_2_6 () Bool)
(declare-fun ud_2_6 () Bool)
(declare-fun lr_6_2 () Bool)
(declare-fun ud_6_2 () Bool)
(declare-fun lr_2_7 () Bool)
(declare-fun ud_2_7 () Bool)
(declare-fun lr_7_2 () Bool)
(declare-fun ud_7_2 () Bool)
(declare-fun lr_2_8 () Bool)
(declare-fun ud_2_8 () Bool)
(declare-fun lr_8_2 () Bool)
(declare-fun ud_8_2 () Bool)
(declare-fun lr_2_9 () Bool)
(declare-fun ud_2_9 () Bool)
(declare-fun lr_9_2 () Bool)
(declare-fun ud_9_2 () Bool)
(declare-fun lr_3_4 () Bool)
(declare-fun ud_3_4 () Bool)
(declare-fun lr_4_3 () Bool)
(declare-fun ud_4_3 () Bool)
(declare-fun lr_3_5 () Bool)
(declare-fun ud_3_5 () Bool)
(declare-fun lr_5_3 () Bool)
(declare-fun ud_5_3 () Bool)
(declare-fun lr_3_6 () Bool)
(declare-fun ud_3_6 () Bool)
(declare-fun lr_6_3 () Bool)
(declare-fun ud_6_3 () Bool)
(declare-fun lr_3_7 () Bool)
(declare-fun ud_3_7 () Bool)
(declare-fun lr_7_3 () Bool)
(declare-fun ud_7_3 () Bool)
(declare-fun lr_3_8 () Bool)
(declare-fun ud_3_8 () Bool)
(declare-fun lr_8_3 () Bool)
(declare-fun ud_8_3 () Bool)
(declare-fun lr_3_9 () Bool)
(declare-fun ud_3_9 () Bool)
(declare-fun lr_9_3 () Bool)
(declare-fun ud_9_3 () Bool)
(declare-fun lr_4_5 () Bool)
(declare-fun ud_4_5 () Bool)
(declare-fun lr_5_4 () Bool)
(declare-fun ud_5_4 () Bool)
(declare-fun lr_4_6 () Bool)
(declare-fun ud_4_6 () Bool)
(declare-fun lr_6_4 () Bool)
(declare-fun ud_6_4 () Bool)
(declare-fun lr_4_7 () Bool)
(declare-fun ud_4_7 () Bool)
(declare-fun lr_7_4 () Bool)
(declare-fun ud_7_4 () Bool)
(declare-fun lr_4_8 () Bool)
(declare-fun ud_4_8 () Bool)
(declare-fun lr_8_4 () Bool)
(declare-fun ud_8_4 () Bool)
(declare-fun lr_4_9 () Bool)
(declare-fun ud_4_9 () Bool)
(declare-fun lr_9_4 () Bool)
(declare-fun ud_9_4 () Bool)
(declare-fun lr_5_6 () Bool)
(declare-fun ud_5_6 () Bool)
(declare-fun lr_6_5 () Bool)
(declare-fun ud_6_5 () Bool)
(declare-fun lr_5_7 () Bool)
(declare-fun ud_5_7 () Bool)
(declare-fun lr_7_5 () Bool)
(declare-fun ud_7_5 () Bool)
(declare-fun lr_5_8 () Bool)
(declare-fun ud_5_8 () Bool)
(declare-fun lr_8_5 () Bool)
(declare-fun ud_8_5 () Bool)
(declare-fun lr_5_9 () Bool)
(declare-fun ud_5_9 () Bool)
(declare-fun lr_9_5 () Bool)
(declare-fun ud_9_5 () Bool)
(declare-fun lr_6_7 () Bool)
(declare-fun ud_6_7 () Bool)
(declare-fun lr_7_6 () Bool)
(declare-fun ud_7_6 () Bool)
(declare-fun lr_6_8 () Bool)
(declare-fun ud_6_8 () Bool)
(declare-fun lr_8_6 () Bool)
(declare-fun ud_8_6 () Bool)
(declare-fun lr_6_9 () Bool)
(declare-fun ud_6_9 () Bool)
(declare-fun lr_9_6 () Bool)
(declare-fun ud_9_6 () Bool)
(declare-fun lr_7_8 () Bool)
(declare-fun ud_7_8 () Bool)
(declare-fun lr_8_7 () Bool)
(declare-fun ud_8_7 () Bool)
(declare-fun lr_7_9 () Bool)
(declare-fun ud_7_9 () Bool)
(declare-fun lr_9_7 () Bool)
(declare-fun ud_9_7 () Bool)
(declare-fun lr_8_9 () Bool)
(declare-fun ud_8_9 () Bool)
(declare-fun lr_9_8 () Bool)
(declare-fun ud_9_8 () Bool)
(assert
 (>= makespan 14))
(assert
 (<= makespan 20))
(assert
 (let ((?x856 (+ y_0 10)))
 (<= ?x856 makespan)))
(assert
 (let ((?x81593 (+ x_0 5)))
 (<= ?x81593 14)))
(assert
 (>= x_0 0))
(assert
 (<= y_0 10))
(assert
 (>= y_0 0))
(assert
 (<= x_0 4))
(assert
 (<= y_0 5))
(assert
 (let ((?x81630 (+ y_1 4)))
 (<= ?x81630 makespan)))
(assert
 (let ((?x81637 (+ x_1 5)))
 (<= ?x81637 14)))
(assert
 (>= x_1 0))
(assert
 (<= y_1 16))
(assert
 (>= y_1 0))
(assert
 (= lr_2_1 false))
(assert
 (let ((?x81679 (+ y_2 9)))
 (<= ?x81679 makespan)))
(assert
 (let ((?x81678 (+ x_2 3)))
 (<= ?x81678 14)))
(assert
 (>= x_2 0))
(assert
 (<= y_2 11))
(assert
 (>= y_2 0))
(assert
 (= ud_3_1 false))
(assert
 (let ((?x1620 (+ y_3 8)))
 (<= ?x1620 makespan)))
(assert
 (let ((?x81714 (+ x_3 3)))
 (<= ?x81714 14)))
(assert
 (>= x_3 0))
(assert
 (<= y_3 12))
(assert
 (>= y_3 0))
(assert
 (= ud_4_1 false))
(assert
 (let ((?x5429 (+ y_4 7)))
 (<= ?x5429 makespan)))
(assert
 (let ((?x81754 (+ x_4 3)))
 (<= ?x81754 14)))
(assert
 (>= x_4 0))
(assert
 (<= y_4 13))
(assert
 (>= y_4 0))
(assert
 (= ud_5_1 false))
(assert
 (let ((?x81795 (+ y_5 6)))
 (<= ?x81795 makespan)))
(assert
 (let ((?x81801 (+ x_5 3)))
 (<= ?x81801 14)))
(assert
 (>= x_5 0))
(assert
 (<= y_5 14))
(assert
 (>= y_5 0))
(assert
 (= ud_6_1 false))
(assert
 (let ((?x9533 (+ y_6 5)))
 (<= ?x9533 makespan)))
(assert
 (let ((?x81831 (+ x_6 3)))
 (<= ?x81831 14)))
(assert
 (>= x_6 0))
(assert
 (<= y_6 15))
(assert
 (>= y_6 0))
(assert
 (let ((?x81855 (+ y_7 4)))
 (<= ?x81855 makespan)))
(assert
 (let ((?x2965 (+ x_7 3)))
 (<= ?x2965 14)))
(assert
 (>= x_7 0))
(assert
 (<= y_7 16))
(assert
 (>= y_7 0))
(assert
 (let ((?x11394 (+ y_8 3)))
 (<= ?x11394 makespan)))
(assert
 (let ((?x7980 (+ x_8 3)))
 (<= ?x7980 14)))
(assert
 (>= x_8 0))
(assert
 (<= y_8 17))
(assert
 (>= y_8 0))
(assert
 (= (<= (+ x_0 5) x_1) lr_1_2))
(assert
 (= (<= (+ y_0 10) y_1) ud_1_2))
(assert
 (= (<= (+ x_1 5) x_0) lr_2_1))
(assert
 (= (<= (+ y_1 4) y_0) ud_2_1))
(assert
 (or lr_1_2 lr_2_1 ud_1_2 ud_2_1))
(assert
 (let (($x7359 (< makespan 14)))
 (=> $x7359 (= ud_1_2 false))))
(assert
 (let (($x7359 (< makespan 14)))
 (=> $x7359 (= ud_2_1 false))))
(assert
 (= (<= (+ x_0 5) x_2) lr_1_3))
(assert
 (= (<= (+ y_0 10) y_2) ud_1_3))
(assert
 (= (<= (+ x_2 3) x_0) lr_3_1))
(assert
 (= (<= (+ y_2 9) y_0) ud_3_1))
(assert
 (or lr_1_3 lr_3_1 ud_1_3 ud_3_1))
(assert
 (let (($x82930 (< makespan 19)))
 (=> $x82930 (= ud_1_3 false))))
(assert
 (let (($x81711 (= ud_3_1 false)))
 (let (($x82930 (< makespan 19)))
 (=> $x82930 $x81711))))
(assert
 (= (<= (+ x_0 5) x_3) lr_1_4))
(assert
 (= (<= (+ y_0 10) y_3) ud_1_4))
(assert
 (= (<= (+ x_3 3) x_0) lr_4_1))
(assert
 (= (<= (+ y_3 8) y_0) ud_4_1))
(assert
 (or lr_1_4 lr_4_1 ud_1_4 ud_4_1))
(assert
 (let (($x82672 (< makespan 18)))
 (=> $x82672 (= ud_1_4 false))))
(assert
 (let (($x81745 (= ud_4_1 false)))
 (let (($x82672 (< makespan 18)))
 (=> $x82672 $x81745))))
(assert
 (= (<= (+ x_0 5) x_4) lr_1_5))
(assert
 (= (<= (+ y_0 10) y_4) ud_1_5))
(assert
 (= (<= (+ x_4 3) x_0) lr_5_1))
(assert
 (= (<= (+ y_4 7) y_0) ud_5_1))
(assert
 (or lr_1_5 lr_5_1 ud_1_5 ud_5_1))
(assert
 (let (($x82480 (< makespan 17)))
 (=> $x82480 (= ud_1_5 false))))
(assert
 (let (($x81787 (= ud_5_1 false)))
 (let (($x82480 (< makespan 17)))
 (=> $x82480 $x81787))))
(assert
 (= (<= (+ x_0 5) x_5) lr_1_6))
(assert
 (= (<= (+ y_0 10) y_5) ud_1_6))
(assert
 (= (<= (+ x_5 3) x_0) lr_6_1))
(assert
 (= (<= (+ y_5 6) y_0) ud_6_1))
(assert
 (or lr_1_6 lr_6_1 ud_1_6 ud_6_1))
(assert
 (let (($x82273 (< makespan 16)))
 (=> $x82273 (= ud_1_6 false))))
(assert
 (let (($x82133 (= ud_6_1 false)))
 (let (($x82273 (< makespan 16)))
 (=> $x82273 $x82133))))
(assert
 (= (<= (+ x_0 5) x_6) lr_1_7))
(assert
 (= (<= (+ y_0 10) y_6) ud_1_7))
(assert
 (= (<= (+ x_6 3) x_0) lr_7_1))
(assert
 (= (<= (+ y_6 5) y_0) ud_7_1))
(assert
 (or lr_1_7 lr_7_1 ud_1_7 ud_7_1))
(assert
 (let (($x82078 (< makespan 15)))
 (=> $x82078 (= ud_1_7 false))))
(assert
 (let (($x82078 (< makespan 15)))
 (=> $x82078 (= ud_7_1 false))))
(assert
 (= (<= (+ x_0 5) x_7) lr_1_8))
(assert
 (= (<= (+ y_0 10) y_7) ud_1_8))
(assert
 (= (<= (+ x_7 3) x_0) lr_8_1))
(assert
 (= (<= (+ y_7 4) y_0) ud_8_1))
(assert
 (or lr_1_8 lr_8_1 ud_1_8 ud_8_1))
(assert
 (let (($x7359 (< makespan 14)))
 (=> $x7359 (= ud_1_8 false))))
(assert
 (let (($x7359 (< makespan 14)))
 (=> $x7359 (= ud_8_1 false))))
(assert
 (= (<= (+ x_0 5) x_8) lr_1_9))
(assert
 (= (<= (+ y_0 10) y_8) ud_1_9))
(assert
 (= (<= (+ x_8 3) x_0) lr_9_1))
(assert
 (= (<= (+ y_8 3) y_0) ud_9_1))
(assert
 (or lr_1_9 lr_9_1 ud_1_9 ud_9_1))
(assert
 (let (($x83178 (< makespan 13)))
 (=> $x83178 (= ud_1_9 false))))
(assert
 (let (($x83178 (< makespan 13)))
 (=> $x83178 (= ud_9_1 false))))
(assert
 (= (<= (+ x_1 5) x_2) lr_2_3))
(assert
 (= (<= (+ y_1 4) y_2) ud_2_3))
(assert
 (= (<= (+ x_2 3) x_1) lr_3_2))
(assert
 (= (<= (+ y_2 9) y_1) ud_3_2))
(assert
 (or lr_2_3 lr_3_2 ud_2_3 ud_3_2))
(assert
 (let (($x83178 (< makespan 13)))
 (=> $x83178 (= ud_2_3 false))))
(assert
 (let (($x83178 (< makespan 13)))
 (=> $x83178 (= ud_3_2 false))))
(assert
 (= (<= (+ x_1 5) x_3) lr_2_4))
(assert
 (= (<= (+ y_1 4) y_3) ud_2_4))
(assert
 (= (<= (+ x_3 3) x_1) lr_4_2))
(assert
 (= (<= (+ y_3 8) y_1) ud_4_2))
(assert
 (or lr_2_4 lr_4_2 ud_2_4 ud_4_2))
(assert
 (let (($x82659 (< makespan 12)))
 (=> $x82659 (= ud_2_4 false))))
(assert
 (let (($x82659 (< makespan 12)))
 (=> $x82659 (= ud_4_2 false))))
(assert
 (= (<= (+ x_1 5) x_4) lr_2_5))
(assert
 (= (<= (+ y_1 4) y_4) ud_2_5))
(assert
 (= (<= (+ x_4 3) x_1) lr_5_2))
(assert
 (= (<= (+ y_4 7) y_1) ud_5_2))
(assert
 (or lr_2_5 lr_5_2 ud_2_5 ud_5_2))
(assert
 (let (($x83294 (< makespan 11)))
 (=> $x83294 (= ud_2_5 false))))
(assert
 (let (($x83294 (< makespan 11)))
 (=> $x83294 (= ud_5_2 false))))
(assert
 (= (<= (+ x_1 5) x_5) lr_2_6))
(assert
 (= (<= (+ y_1 4) y_5) ud_2_6))
(assert
 (= (<= (+ x_5 3) x_1) lr_6_2))
(assert
 (= (<= (+ y_5 6) y_1) ud_6_2))
(assert
 (or lr_2_6 lr_6_2 ud_2_6 ud_6_2))
(assert
 (let (($x24590 (< makespan 10)))
 (=> $x24590 (= ud_2_6 false))))
(assert
 (let (($x24590 (< makespan 10)))
 (=> $x24590 (= ud_6_2 false))))
(assert
 (= (<= (+ x_1 5) x_6) lr_2_7))
(assert
 (= (<= (+ y_1 4) y_6) ud_2_7))
(assert
 (= (<= (+ x_6 3) x_1) lr_7_2))
(assert
 (= (<= (+ y_6 5) y_1) ud_7_2))
(assert
 (or lr_2_7 lr_7_2 ud_2_7 ud_7_2))
(assert
 (let (($x82804 (< makespan 9)))
 (=> $x82804 (= ud_2_7 false))))
(assert
 (let (($x82804 (< makespan 9)))
 (=> $x82804 (= ud_7_2 false))))
(assert
 (= (<= (+ x_1 5) x_7) lr_2_8))
(assert
 (= (<= (+ y_1 4) y_7) ud_2_8))
(assert
 (= (<= (+ x_7 3) x_1) lr_8_2))
(assert
 (= (<= (+ y_7 4) y_1) ud_8_2))
(assert
 (or lr_2_8 lr_8_2 ud_2_8 ud_8_2))
(assert
 (let (($x82767 (< makespan 8)))
 (=> $x82767 (= ud_2_8 false))))
(assert
 (let (($x82767 (< makespan 8)))
 (=> $x82767 (= ud_8_2 false))))
(assert
 (= (<= (+ x_1 5) x_8) lr_2_9))
(assert
 (= (<= (+ y_1 4) y_8) ud_2_9))
(assert
 (= (<= (+ x_8 3) x_1) lr_9_2))
(assert
 (= (<= (+ y_8 3) y_1) ud_9_2))
(assert
 (or lr_2_9 lr_9_2 ud_2_9 ud_9_2))
(assert
 (let (($x82294 (< makespan 7)))
 (=> $x82294 (= ud_2_9 false))))
(assert
 (let (($x82294 (< makespan 7)))
 (=> $x82294 (= ud_9_2 false))))
(assert
 (= (<= (+ x_2 3) x_3) lr_3_4))
(assert
 (= (<= (+ y_2 9) y_3) ud_3_4))
(assert
 (= (<= (+ x_3 3) x_2) lr_4_3))
(assert
 (= (<= (+ y_3 8) y_2) ud_4_3))
(assert
 (or lr_3_4 lr_4_3 ud_3_4 ud_4_3))
(assert
 (let (($x82480 (< makespan 17)))
 (=> $x82480 (= ud_3_4 false))))
(assert
 (let (($x82480 (< makespan 17)))
 (=> $x82480 (= ud_4_3 false))))
(assert
 (= (<= (+ x_2 3) x_4) lr_3_5))
(assert
 (= (<= (+ y_2 9) y_4) ud_3_5))
(assert
 (= (<= (+ x_4 3) x_2) lr_5_3))
(assert
 (= (<= (+ y_4 7) y_2) ud_5_3))
(assert
 (or lr_3_5 lr_5_3 ud_3_5 ud_5_3))
(assert
 (let (($x82273 (< makespan 16)))
 (=> $x82273 (= ud_3_5 false))))
(assert
 (let (($x82273 (< makespan 16)))
 (=> $x82273 (= ud_5_3 false))))
(assert
 (= (<= (+ x_2 3) x_5) lr_3_6))
(assert
 (= (<= (+ y_2 9) y_5) ud_3_6))
(assert
 (= (<= (+ x_5 3) x_2) lr_6_3))
(assert
 (= (<= (+ y_5 6) y_2) ud_6_3))
(assert
 (or lr_3_6 lr_6_3 ud_3_6 ud_6_3))
(assert
 (let (($x82078 (< makespan 15)))
 (=> $x82078 (= ud_3_6 false))))
(assert
 (let (($x82078 (< makespan 15)))
 (=> $x82078 (= ud_6_3 false))))
(assert
 (= (<= (+ x_2 3) x_6) lr_3_7))
(assert
 (= (<= (+ y_2 9) y_6) ud_3_7))
(assert
 (= (<= (+ x_6 3) x_2) lr_7_3))
(assert
 (= (<= (+ y_6 5) y_2) ud_7_3))
(assert
 (or lr_3_7 lr_7_3 ud_3_7 ud_7_3))
(assert
 (let (($x7359 (< makespan 14)))
 (=> $x7359 (= ud_3_7 false))))
(assert
 (let (($x7359 (< makespan 14)))
 (=> $x7359 (= ud_7_3 false))))
(assert
 (= (<= (+ x_2 3) x_7) lr_3_8))
(assert
 (= (<= (+ y_2 9) y_7) ud_3_8))
(assert
 (= (<= (+ x_7 3) x_2) lr_8_3))
(assert
 (= (<= (+ y_7 4) y_2) ud_8_3))
(assert
 (or lr_3_8 lr_8_3 ud_3_8 ud_8_3))
(assert
 (let (($x83178 (< makespan 13)))
 (=> $x83178 (= ud_3_8 false))))
(assert
 (let (($x83178 (< makespan 13)))
 (=> $x83178 (= ud_8_3 false))))
(assert
 (= (<= (+ x_2 3) x_8) lr_3_9))
(assert
 (= (<= (+ y_2 9) y_8) ud_3_9))
(assert
 (= (<= (+ x_8 3) x_2) lr_9_3))
(assert
 (= (<= (+ y_8 3) y_2) ud_9_3))
(assert
 (or lr_3_9 lr_9_3 ud_3_9 ud_9_3))
(assert
 (let (($x82659 (< makespan 12)))
 (=> $x82659 (= ud_3_9 false))))
(assert
 (let (($x82659 (< makespan 12)))
 (=> $x82659 (= ud_9_3 false))))
(assert
 (= (<= (+ x_3 3) x_4) lr_4_5))
(assert
 (= (<= (+ y_3 8) y_4) ud_4_5))
(assert
 (= (<= (+ x_4 3) x_3) lr_5_4))
(assert
 (= (<= (+ y_4 7) y_3) ud_5_4))
(assert
 (or lr_4_5 lr_5_4 ud_4_5 ud_5_4))
(assert
 (let (($x82078 (< makespan 15)))
 (=> $x82078 (= ud_4_5 false))))
(assert
 (let (($x82078 (< makespan 15)))
 (=> $x82078 (= ud_5_4 false))))
(assert
 (= (<= (+ x_3 3) x_5) lr_4_6))
(assert
 (= (<= (+ y_3 8) y_5) ud_4_6))
(assert
 (= (<= (+ x_5 3) x_3) lr_6_4))
(assert
 (= (<= (+ y_5 6) y_3) ud_6_4))
(assert
 (or lr_4_6 lr_6_4 ud_4_6 ud_6_4))
(assert
 (let (($x7359 (< makespan 14)))
 (=> $x7359 (= ud_4_6 false))))
(assert
 (let (($x7359 (< makespan 14)))
 (=> $x7359 (= ud_6_4 false))))
(assert
 (= (<= (+ x_3 3) x_6) lr_4_7))
(assert
 (= (<= (+ y_3 8) y_6) ud_4_7))
(assert
 (= (<= (+ x_6 3) x_3) lr_7_4))
(assert
 (= (<= (+ y_6 5) y_3) ud_7_4))
(assert
 (or lr_4_7 lr_7_4 ud_4_7 ud_7_4))
(assert
 (let (($x83178 (< makespan 13)))
 (=> $x83178 (= ud_4_7 false))))
(assert
 (let (($x83178 (< makespan 13)))
 (=> $x83178 (= ud_7_4 false))))
(assert
 (= (<= (+ x_3 3) x_7) lr_4_8))
(assert
 (= (<= (+ y_3 8) y_7) ud_4_8))
(assert
 (= (<= (+ x_7 3) x_3) lr_8_4))
(assert
 (= (<= (+ y_7 4) y_3) ud_8_4))
(assert
 (or lr_4_8 lr_8_4 ud_4_8 ud_8_4))
(assert
 (let (($x82659 (< makespan 12)))
 (=> $x82659 (= ud_4_8 false))))
(assert
 (let (($x82659 (< makespan 12)))
 (=> $x82659 (= ud_8_4 false))))
(assert
 (= (<= (+ x_3 3) x_8) lr_4_9))
(assert
 (= (<= (+ y_3 8) y_8) ud_4_9))
(assert
 (= (<= (+ x_8 3) x_3) lr_9_4))
(assert
 (= (<= (+ y_8 3) y_3) ud_9_4))
(assert
 (or lr_4_9 lr_9_4 ud_4_9 ud_9_4))
(assert
 (let (($x83294 (< makespan 11)))
 (=> $x83294 (= ud_4_9 false))))
(assert
 (let (($x83294 (< makespan 11)))
 (=> $x83294 (= ud_9_4 false))))
(assert
 (= (<= (+ x_4 3) x_5) lr_5_6))
(assert
 (= (<= (+ y_4 7) y_5) ud_5_6))
(assert
 (= (<= (+ x_5 3) x_4) lr_6_5))
(assert
 (= (<= (+ y_5 6) y_4) ud_6_5))
(assert
 (or lr_5_6 lr_6_5 ud_5_6 ud_6_5))
(assert
 (let (($x83178 (< makespan 13)))
 (=> $x83178 (= ud_5_6 false))))
(assert
 (let (($x83178 (< makespan 13)))
 (=> $x83178 (= ud_6_5 false))))
(assert
 (= (<= (+ x_4 3) x_6) lr_5_7))
(assert
 (= (<= (+ y_4 7) y_6) ud_5_7))
(assert
 (= (<= (+ x_6 3) x_4) lr_7_5))
(assert
 (= (<= (+ y_6 5) y_4) ud_7_5))
(assert
 (or lr_5_7 lr_7_5 ud_5_7 ud_7_5))
(assert
 (let (($x82659 (< makespan 12)))
 (=> $x82659 (= ud_5_7 false))))
(assert
 (let (($x82659 (< makespan 12)))
 (=> $x82659 (= ud_7_5 false))))
(assert
 (= (<= (+ x_4 3) x_7) lr_5_8))
(assert
 (= (<= (+ y_4 7) y_7) ud_5_8))
(assert
 (= (<= (+ x_7 3) x_4) lr_8_5))
(assert
 (= (<= (+ y_7 4) y_4) ud_8_5))
(assert
 (or lr_5_8 lr_8_5 ud_5_8 ud_8_5))
(assert
 (let (($x83294 (< makespan 11)))
 (=> $x83294 (= ud_5_8 false))))
(assert
 (let (($x83294 (< makespan 11)))
 (=> $x83294 (= ud_8_5 false))))
(assert
 (= (<= (+ x_4 3) x_8) lr_5_9))
(assert
 (= (<= (+ y_4 7) y_8) ud_5_9))
(assert
 (= (<= (+ x_8 3) x_4) lr_9_5))
(assert
 (= (<= (+ y_8 3) y_4) ud_9_5))
(assert
 (or lr_5_9 lr_9_5 ud_5_9 ud_9_5))
(assert
 (let (($x24590 (< makespan 10)))
 (=> $x24590 (= ud_5_9 false))))
(assert
 (let (($x24590 (< makespan 10)))
 (=> $x24590 (= ud_9_5 false))))
(assert
 (= (<= (+ x_5 3) x_6) lr_6_7))
(assert
 (= (<= (+ y_5 6) y_6) ud_6_7))
(assert
 (= (<= (+ x_6 3) x_5) lr_7_6))
(assert
 (= (<= (+ y_6 5) y_5) ud_7_6))
(assert
 (or lr_6_7 lr_7_6 ud_6_7 ud_7_6))
(assert
 (let (($x83294 (< makespan 11)))
 (=> $x83294 (= ud_6_7 false))))
(assert
 (let (($x83294 (< makespan 11)))
 (=> $x83294 (= ud_7_6 false))))
(assert
 (= (<= (+ x_5 3) x_7) lr_6_8))
(assert
 (= (<= (+ y_5 6) y_7) ud_6_8))
(assert
 (= (<= (+ x_7 3) x_5) lr_8_6))
(assert
 (= (<= (+ y_7 4) y_5) ud_8_6))
(assert
 (or lr_6_8 lr_8_6 ud_6_8 ud_8_6))
(assert
 (let (($x24590 (< makespan 10)))
 (=> $x24590 (= ud_6_8 false))))
(assert
 (let (($x24590 (< makespan 10)))
 (=> $x24590 (= ud_8_6 false))))
(assert
 (= (<= (+ x_5 3) x_8) lr_6_9))
(assert
 (= (<= (+ y_5 6) y_8) ud_6_9))
(assert
 (= (<= (+ x_8 3) x_5) lr_9_6))
(assert
 (= (<= (+ y_8 3) y_5) ud_9_6))
(assert
 (or lr_6_9 lr_9_6 ud_6_9 ud_9_6))
(assert
 (let (($x82804 (< makespan 9)))
 (=> $x82804 (= ud_6_9 false))))
(assert
 (let (($x82804 (< makespan 9)))
 (=> $x82804 (= ud_9_6 false))))
(assert
 (= (<= (+ x_6 3) x_7) lr_7_8))
(assert
 (= (<= (+ y_6 5) y_7) ud_7_8))
(assert
 (= (<= (+ x_7 3) x_6) lr_8_7))
(assert
 (= (<= (+ y_7 4) y_6) ud_8_7))
(assert
 (or lr_7_8 lr_8_7 ud_7_8 ud_8_7))
(assert
 (let (($x82804 (< makespan 9)))
 (=> $x82804 (= ud_7_8 false))))
(assert
 (let (($x82804 (< makespan 9)))
 (=> $x82804 (= ud_8_7 false))))
(assert
 (= (<= (+ x_6 3) x_8) lr_7_9))
(assert
 (= (<= (+ y_6 5) y_8) ud_7_9))
(assert
 (= (<= (+ x_8 3) x_6) lr_9_7))
(assert
 (= (<= (+ y_8 3) y_6) ud_9_7))
(assert
 (or lr_7_9 lr_9_7 ud_7_9 ud_9_7))
(assert
 (let (($x82767 (< makespan 8)))
 (=> $x82767 (= ud_7_9 false))))
(assert
 (let (($x82767 (< makespan 8)))
 (=> $x82767 (= ud_9_7 false))))
(assert
 (= (<= (+ x_7 3) x_8) lr_8_9))
(assert
 (= (<= (+ y_7 4) y_8) ud_8_9))
(assert
 (= (<= (+ x_8 3) x_7) lr_9_8))
(assert
 (= (<= (+ y_8 3) y_7) ud_9_8))
(assert
 (or lr_8_9 lr_9_8 ud_8_9 ud_9_8))
(assert
 (let (($x82294 (< makespan 7)))
 (=> $x82294 (= ud_8_9 false))))
(assert
 (let (($x82294 (< makespan 7)))
 (=> $x82294 (= ud_9_8 false))))
(check-sat)
